33D32945 STP File, STP Format Version 1.0

SECTION Comments
Name "edge_n12_d5_s16"
Problem "Euclidean Steiner Tree Problem"
Remark "Generated with STPGenerator. 5 dimensions."
END

SECTION Graph
Nodes 12
END

SECTION Coordinates
DDDDD 0 0.2154374701 0.2154374701 0.2154374701 0.2154374701 0.2154374701
DDDDD 1 0.0895364271 0.0895364271 0.0895364271 0.0895364271 0.0895364271
DDDDD 2 0.3215230151 0.3215230151 0.3215230151 0.3215230151 0.3215230151
DDDDD 3 0.5994994997 0.5994994997 0.5994994997 0.5994994997 0.5994994997
DDDDD 4 0.9209823329 0.9209823329 0.9209823329 0.9209823329 0.9209823329
DDDDD 5 0.0083380486 0.0083380486 0.0083380486 0.0083380486 0.0083380486
DDDDD 6 0.2498201687 0.2498201687 0.2498201687 0.2498201687 0.2498201687
DDDDD 7 0.6923724262 0.6923724262 0.6923724262 0.6923724262 0.6923724262
DDDDD 8 0.3582976681 0.3582976681 0.3582976681 0.3582976681 0.3582976681
DDDDD 9 0.8231695224 0.8231695224 0.8231695224 0.8231695224 0.8231695224
DDDDD 10 0.1180784167 0.1180784167 0.1180784167 0.1180784167 0.1180784167
DDDDD 11 0.5551794663 0.5551794663 0.5551794663 0.5551794663 0.5551794663
END
